s td 37 14 50
b 1 3 32
b 2 33 40
b 3 20 38 43
b 4 4 14 50
b 5 15 17 26
b 6 18 26 31
b 7 19 26 30
b 8 23 34 38
b 9 36 44 45
b 10 1 5 24 30
b 11 1 16 30 48
b 12 1 24 30 48 49
b 13 1 2 3 6 8 9 10 13 14 26 30 36 39 41
b 14 2 3 8 9 10 11 13 14 26 30 36 39 41
b 15 2 3 9 10 11 13 14 26 30 36 39 44
b 16 2 3 7 9 10 11 13 14 30 44
b 17 2 4 7 9 14 30 44
b 18 3 7 9 10 11 13 46
b 19 3 9 10 13 29 46
b 20 3 11 17 26 41
b 21 1 3 6 8 9 10 13 14 26 30 36 39 41 49
b 22 1 3 6 8 9 10 13 14 28 30 36 39 49
b 23 1 3 6 9 10 14 28 30 36 39 47 49
b 24 1 3 6 9 14 24 28 30 36 39 47 49
b 25 1 3 6 9 14 23 24 30 39 47 49
b 26 6 12 23 24 39 47
b 27 1 3 9 20 23 24 39 47
b 28 20 22 39 47
b 29 3 20 23 38 47
b 30 3 6 8 10 14 30 39 41 42 49
b 31 8 21 42 49
b 32 3 6 8 10 14 35 39 41 42
b 33 8 10 35 40 41 42
b 34 1 2 25 39 41
b 35 2 6 8 13 14 26 27 30
b 36 8 13 26 27 30 31
b 37 37
1 13
1 37
2 33
3 29
4 17
5 20
6 36
7 13
8 29
9 15
10 24
11 12
12 24
13 14
13 21
13 34
13 35
14 15
14 20
15 16
16 17
16 18
18 19
21 22
21 30
22 23
23 24
24 25
25 26
25 27
27 28
27 29
30 31
30 32
32 33
35 36
